\ Model sub model
\ LP format - for model browsing. Use MPS format to capture full model detail.
Minimize
  eta
Subject To
 eta=sumL: - L3[0] - L3[1] + eta = 0
 beta[0,0]: 820 v[0,0,1] + 247 v[0,0,2] - L3[0] <= 0
 beta[0,1]: 446 v[0,1,0] + 519 v[0,1,2] - L3[0] <= 0
 beta[0,2]: 978 v[0,2,0] + 517 v[0,2,1] - L3[0] <= 0
 beta[1,0]: 100 v[1,0,1] + 192 v[1,0,2] - L3[1] <= 0
 beta[1,1]: 497 v[1,1,0] + 785 v[1,1,2] - L3[1] <= 0
 beta[1,2]: 127 v[1,2,0] + 659 v[1,2,1] - L3[1] <= 0
 gamma[0,0,0]: v[0,0,0] - u[0,0] <= 1
 gamma[0,0,1]: v[0,0,1] - u[0,1] <= 0
 gamma[0,0,2]: v[0,0,2] - u[0,2] <= 0
 gamma[0,1,0]: v[0,1,0] - u[0,0] <= 1
 gamma[0,1,1]: v[0,1,1] - u[0,1] <= 0
 gamma[0,1,2]: v[0,1,2] - u[0,2] <= 0
 gamma[0,2,0]: v[0,2,0] - u[0,0] <= 1
 gamma[0,2,1]: v[0,2,1] - u[0,1] <= 0
 gamma[0,2,2]: v[0,2,2] - u[0,2] <= 0
 gamma[1,0,0]: v[1,0,0] - u[1,0] <= 1
 gamma[1,0,1]: v[1,0,1] - u[1,1] <= 0
 gamma[1,0,2]: v[1,0,2] - u[1,2] <= 0
 gamma[1,1,0]: v[1,1,0] - u[1,0] <= 1
 gamma[1,1,1]: v[1,1,1] - u[1,1] <= 0
 gamma[1,1,2]: v[1,1,2] - u[1,2] <= 0
 gamma[1,2,0]: v[1,2,0] - u[1,0] <= 1
 gamma[1,2,1]: v[1,2,1] - u[1,1] <= 0
 gamma[1,2,2]: v[1,2,2] - u[1,2] <= 0
 delta[0,0,0]: v[0,0,0] <= 1
 delta[0,0,1]: v[0,0,1] <= 0
 delta[0,0,2]: v[0,0,2] <= 1
 delta[0,1,0]: v[0,1,0] <= 1
 delta[0,1,1]: v[0,1,1] <= 0
 delta[0,1,2]: v[0,1,2] <= 1
 delta[0,2,0]: v[0,2,0] <= 1
 delta[0,2,1]: v[0,2,1] <= 0
 delta[0,2,2]: v[0,2,2] <= 1
 delta[1,0,0]: v[1,0,0] <= 0
 delta[1,0,1]: v[1,0,1] <= 1
 delta[1,0,2]: v[1,0,2] <= 1
 delta[1,1,0]: v[1,1,0] <= 0
 delta[1,1,1]: v[1,1,1] <= 1
 delta[1,1,2]: v[1,1,2] <= 1
 delta[1,2,0]: v[1,2,0] <= 0
 delta[1,2,1]: v[1,2,1] <= 1
 delta[1,2,2]: v[1,2,2] <= 1
 epsilon[0,0]: v[0,0,0] + v[0,0,1] + v[0,0,2] = 1
 epsilon[0,1]: v[0,1,0] + v[0,1,1] + v[0,1,2] = 1
 epsilon[0,2]: v[0,2,0] + v[0,2,1] + v[0,2,2] = 1
 epsilon[1,0]: v[1,0,0] + v[1,0,1] + v[1,0,2] = 1
 epsilon[1,1]: v[1,1,0] + v[1,1,1] + v[1,1,2] = 1
 epsilon[1,2]: v[1,2,0] + v[1,2,1] + v[1,2,2] = 1
 lamda[0,0]: u[0,0] <= 0
 lamda[0,1]: u[0,1] <= 1
 lamda[0,2]: u[0,2] <= 1
 lamda[1,0]: u[1,0] <= 0
 lamda[1,1]: u[1,1] <= 1
 lamda[1,2]: u[1,2] <= 1
 mu[0,0]: u[0,0] <= 1
 mu[0,1]: u[0,1] <= 0
 mu[0,2]: u[0,2] <= 1
 mu[1,0]: u[1,0] <= 0
 mu[1,1]: u[1,1] <= 1
 mu[1,2]: u[1,2] <= 1
 nu[0]: u[0,0] + u[0,1] + u[0,2] = 0
 nu[1]: u[1,0] + u[1,1] + u[1,2] = 1
Bounds
End
